; benchmark generated from python API
(set-info :status unknown)
(declare-datatypes ((RealState 0)) (((RMk1 (rval1 Real)) (RMk2 (rval2 Real)))))
 (declare-fun ep () Real)
(declare-fun V () Real)
(declare-fun v2uscore1dollarskuscore632 () Real)
(declare-fun v1uscore1dollarskuscore632 () Real)
(declare-fun t2010uscore0 () Real)
(declare-fun x1uscore1dollarskuscore425 () Real)
(declare-fun xI1 () Real)
(declare-fun x2uscore1dollarskuscore461 () Real)
(declare-fun xI2 () Real)
(declare-fun A () Real)
(declare-fun v2 () Real)
(declare-fun v1 () Real)
(declare-fun B () Real)
(declare-fun x2 () Real)
(declare-fun I2 () Real)
(declare-fun x1 () Real)
(declare-fun I1 () Real)
(declare-fun I2uscore1dollarskuscore632 () Real)
(declare-fun I1uscore1dollarskuscore632 () Real)
(assert
 (let (($x250 (exists ((ts2010uscore0_st RealState) (val!48 Real) )(let (($x192 (or (= 2.0 2.0) (= 0.0 2.0))))
 (let (($x84 (and (>= v1uscore1dollarskuscore632 0.0) (<= v1uscore1dollarskuscore632 V))))
 (let (($x92 (and (and $x84 (>= v2uscore1dollarskuscore632 0.0)) (<= v2uscore1dollarskuscore632 V))))
 (let (($x121 (=> (and (<= 0.0 (rval2 ts2010uscore0_st)) (<= (rval2 ts2010uscore0_st) t2010uscore0)) (and $x92 (<= (+ (rval2 ts2010uscore0_st) 0.0) ep)))))
 (let (($x8 (>= t2010uscore0 0.0)))
 (let (($x101 (or (= xI2 x2uscore1dollarskuscore461) (= xI1 x1uscore1dollarskuscore425))))
 (let (($x137 (and (= v2uscore1dollarskuscore632 0.0) (= v1uscore1dollarskuscore632 0.0))))
 (let (($x212 (and (and $x137 (= I1uscore1dollarskuscore632 1.0)) (< xI1 x1uscore1dollarskuscore425))))
 (let (($x60 (and (and $x212 (= I2uscore1dollarskuscore632 2.0)) (= I1 2.0))))
 (let (($x78 (and (and (and $x60 (< xI1 x1)) (= I2 2.0)) (< xI2 x2))))
 (let (($x169 (and (and (and $x78 (> B 0.0)) (>= v1 0.0)) (<= v1 V))))
 (let (($x230 (and (and (and $x169 (>= v2 0.0)) (<= v2 V)) (>= A 0.0))))
 (let (($x246 (and (and $x230 (> V 0.0)) (> ep 0.0))))
 (let (($x94 (not (= ts2010uscore0_st (RMk1 val!48)))))
 (and $x94 (=> $x246 (or $x101 (=> (and $x8 $x121) $x192)))))))))))))))))))
 ))
 (not $x250)))
(check-sat)
